Optimal - objective value 6.00938524
      0 C0000000           50000                      -0
      1 C0000001           50000                      -0
      2 C0000002               1                      -0
      3 C0000003               2                      -0
      4 C0000004               3                      -0
      5 C0000005               1                      -0
      6 C0000006               1                      -0
      7 C0000007               1                      -0
      8 C0000008               1                      -0
      9 C0000009               0                      -0
     10 C0000010               2                      -0
     11 C0000011               0                      -0
     12 C0000012               0                      -0
     13 C0000013               0                      -0
     14 C0000014               0                      -0
     15 C0000015               0                      -0
     16 C0000016               0                      -0
     17 C0000017               1                      -0
     18 C0000018               1                      -0
     19 C0000019               0                      -0
     20 C0000020               0                      -0
     21 C0000021               0                      -0
     22 C0000022               0                      -0
     23 C0000023               2                      -0
     24 C0000024               1                      -0
     25 C0000025               0                      -0
     26 C0000026               1                      -0
     27 C0000027               0                      -0
     28 C0000028               0                      -0
     29 C0000029               0                      -0
     30 C0000030               0                      -0
     31 C0000031               0                      -0
     32 C0000032               0                      -0
     33 C0000033               0                      -0
     34 C0000034               0                      -0
     35 C0000035               0                      -0
     36 C0000036               0                      -0
     37 C0000037               0                      -0
     38 C0000038               0                      -0
     39 C0000039               0                      -0
     40 C0000040               0                      -0
     41 C0000041               1                      -0
     42 C0000042               0                      -0
     43 C0000043               0                      -0
     44 C0000044               0                      -0
     45 C0000045               0                      -0
     46 C0000046               0                      -0
     47 C0000047               0                      -0
     48 C0000048               0                      -0
     49 C0000049               0                      -0
     50 C0000050               0                      -0
     51 C0000051               0                      -0
     52 C0000052               1                      -0
     53 C0000053               0                      -0
     54 C0000054               0                      -0
     55 C0000055               0                      -0
     56 C0000056               0                      -0
     57 C0000057               0                      -0
     58 C0000058               0                      -0
     59 C0000059               0                      -0
     60 C0000060               0                      -0
     61 C0000061               0                      -0
     62 C0000062               0                      -0
     63 C0000063               0                      -0
     64 C0000064               0                      -0
     65 C0000065               0                      -0
     66 C0000066               0                      -0
     67 C0000067               0                      -0
     68 C0000068               0                      -0
     69 C0000069               0                      -0
     70 C0000070               1                      -0
     71 C0000071               0                      -0
     72 C0000072               0                      -0
     73 C0000073               0                      -0
     74 C0000074               1                      -0
     75 C0000075               0                      -0
     76 C0000076               0                      -0
     77 C0000077               0                      -0
     78 C0000078               1                      -0
     79 C0000079               0                      -0
     80 C0000080               0                      -0
     81 C0000081               0                      -0
     82 C0000082               0                      -0
     83 C0000083               0                      -0
     84 C0000084               0                      -0
     85 C0000085               0                      -0
     86 C0000086               0                      -0
     87 C0000087               0                      -0
     88 C0000088               0                      -0
     89 C0000089               0                      -0
     90 C0000090               0                      -0
     91 C0000091               0                      -0
     92 C0000092               0                      -0
     93 C0000093               0                      -0
     94 C0000094               0                      -0
     95 C0000095               0                      -0
     96 C0000096               0                      -0
     97 C0000097               0                      -0
     98 C0000098               0                      -0
     99 C0000099               0                      -0
    100 C0000100               0                      -0
    101 C0000101               0                      -0
    102 C0000102               0                      -0
    103 C0000103               0                      -0
    104 C0000104               0                      -0
    105 C0000105               0                      -0
    106 C0000106               0                      -0
    107 C0000107               0                      -0
    108 C0000108               0                      -0
    109 C0000109               0                      -0
    110 C0000110               1                      -0
    111 C0000111               0                      -0
    112 C0000112               0                      -0
    113 C0000113               0                      -0
    114 C0000114               0                      -0
    115 C0000115               0                      -0
    116 C0000116               0                      -0
    117 C0000117               0                      -0
    118 C0000118               0                      -0
    119 C0000119               0                      -0
    120 C0000120               0                      -0
    121 C0000121               0                      -0
    122 C0000122               0                      -0
    123 C0000123               1                      -0
    124 C0000124               0                      -0
    125 C0000125               0                      -0
    126 C0000126               0                      -0
    127 C0000127               0                      -0
    128 C0000128               0                      -0
    129 C0000129               0                      -0
    130 C0000130               0                      -0
    131 C0000131               0                      -0
    132 C0000132               0                      -0
    133 C0000133               0                      -0
    134 C0000134               0                      -0
    135 C0000135               0                      -0
    136 C0000136               0                      -0
    137 C0000137               0                      -0
    138 C0000138               0                      -0
    139 C0000139               0                      -0
    140 C0000140               0                      -0
    141 C0000141               1                      -0
    142 C0000142               0                      -0
    143 C0000143               0                      -0
    144 C0000144               0                      -0
    145 C0000145               0                      -0
    146 C0000146               0                      -0
    147 C0000147               0                      -0
    148 C0000148               0                      -0
    149 C0000149               0                      -0
    150 C0000150               0                      -0
    151 C0000151               0                      -0
    152 C0000152               0                      -0
    153 C0000153               0                      -0
    154 C0000154               0                      -0
    155 C0000155               0                      -0
    156 C0000156               0                      -0
    157 C0000157               0                      -0
    158 C0000158               0                      -0
    159 C0000159               1                      -0
    160 C0000160               0                      -0
    161 C0000161               0                      -0
    162 C0000162               0                      -0
    163 C0000163               0                      -0
    164 C0000164               0                      -0
    165 C0000165               0                      -0
    166 C0000166               0                      -0
    167 C0000167               0                      -0
    168 C0000168               0                      -0
    169 C0000169               0                      -0
    170 C0000170               0                      -0
    171 C0000171               0                      -0
    172 C0000172               0                      -0
    173 C0000173               0                      -0
    174 C0000174               0                      -0
    175 C0000175               0                      -0
    176 C0000176               0                      -0
    177 C0000177               0                      -0
    178 C0000178               0                      -0
    179 C0000179               0                      -0
    180 C0000180               0                      -0
    181 C0000181               0                      -0
    182 C0000182               0                      -0
    183 C0000183               0                      -0
    184 C0000184               0                      -0
    185 C0000185               0                      -0
    186 C0000186               0                      -0
    187 C0000187               0                      -0
    188 C0000188               0                      -0
    189 C0000189               0                      -0
    190 C0000190               0                      -0
    191 C0000191               0                      -0
    192 C0000192               0                      -0
    193 C0000193               0                      -0
    194 C0000194               0                      -0
    195 C0000195          106.62                      -0
    196 C0000196           139.4                      -0
    197 C0000197               6                      -0
    198 C0000198               5                      -0
    199 C0000199               4                      -0
    200 C0000200               6                      -0
    201 C0000201               5                      -0
    202 C0000202               6                      -0
    203 C0000203               6                      -0
    204 C0000204               4                      -0
    205 C0000205               4                      -0
    206 C0000206               6                      -0
    207 C0000207               5                      -0
    208 C0000208               7                      -0
    209 C0000209               5                      -0
    210 C0000210               6                      -0
    211 C0000211               5                      -0
    212 C0000212               5                      -0
    213 C0000213               6                      -0
    214 C0000214               7                      -0
    215 C0000215               6                      -0
    216 C0000216               4                      -0
    217 C0000217               6                      -0
    218 C0000218               4                      -0
    219 C0000219               6                      -0
    220 C0000220               5                      -0
    221 C0000221               6                      -0
    222 C0000222               4                      -0
    223 C0000223               5                      -0
      0 X0000000               0             -0.21126903
      1 X0000001               0              0.63966921
      2 X0000002               0              0.63966921
      3 X0000003               0              0.52210917
      4 X0000004               0              0.52210917
      5 X0000005               0              0.98472981
      6 X0000006               0               0.5346163
      7 X0000007               0               0.5346163
      8 X0000008               0              0.27330652
      9 X0000009               0              0.27330652
     10 X0000010               1              0.99804278
     11 X0000011               0              0.43782907
     12 X0000012               0              0.43782907
     13 X0000013               0              0.46954644
     14 X0000014               0              0.46954644
     15 X0000015               0              0.42541773
     16 X0000016               0              0.42541773
     17 X0000017               0              0.32505334
     18 X0000018               0              0.32505334
     19 X0000019               0               0.6345363
     20 X0000020               0               0.6345363
     21 X0000021               0              0.32824963
     22 X0000022               0              0.32824963
     23 X0000023               0              0.64958987
     24 X0000024               0              0.18775047
     25 X0000025               0              0.18775047
     26 X0000026               0            -0.041483424
     27 X0000027               0            -0.041483424
     28 X0000028               0              0.11582169
     29 X0000029               0             0.024671532
     30 X0000030               0             0.024671532
     31 X0000031               0              0.26122967
     32 X0000032               0              0.68604933
     33 X0000033               0              0.68604933
     34 X0000034               1              0.29674078
     35 X0000035               0              0.16963587
     36 X0000036               0              0.16963587
     37 X0000037               0              0.52789236
     38 X0000038               0              0.52789236
     39 X0000039               0               0.4248429
     40 X0000040               0               0.4248429
     41 X0000041               0               0.5015887
     42 X0000042               0               0.5015887
     43 X0000043               0              0.58034401
     44 X0000044               0              0.58034401
     45 X0000045               0              0.63461022
     46 X0000046               0              0.63461022
     47 X0000047               0              0.83751121
     48 X0000048               0             -0.14897467
     49 X0000049               0              0.85508114
     50 X0000050               0              0.67633001
     51 X0000051               0              0.48694623
     52 X0000052               0              0.48694623
     53 X0000053               0              0.16561705
     54 X0000054               0              0.16561705
     55 X0000055               0              0.17343252
     56 X0000056               0              0.74468185
     57 X0000057               0              0.74468185
     58 X0000058               0             0.089980377
     59 X0000059               0             0.089980377
     60 X0000060               0              0.67068877
     61 X0000061               1              0.67068877
     62 X0000062               0              0.29530004
     63 X0000063               0              0.29530004
     64 X0000064               0              0.21709469
     65 X0000065               0             -0.12599976
     66 X0000066               0              0.51451004
     67 X0000067               0              0.51451004
     68 X0000068               0              0.10279235
     69 X0000069               0              0.10279235
     70 X0000070               0              0.41062596
     71 X0000071               0              0.41062596
     72 X0000072               0              0.47783427
     73 X0000073               0              0.47783427
     74 X0000074               0              0.66060114
     75 X0000075               0              0.66060114
     76 X0000076               0              0.44242538
     77 X0000077               0              0.44242538
     78 X0000078               0              0.07679679
     79 X0000079               0              0.07679679
     80 X0000080               0              0.23494149
     81 X0000081               0              0.23494149
     82 X0000082               0              0.36863509
     83 X0000083               0              0.36863509
     84 X0000084               0              0.66163524
     85 X0000085               0              0.66163524
     86 X0000086               0              0.34880151
     87 X0000087               0              0.34880151
     88 X0000088               0              0.64470106
     89 X0000089               0              0.64470106
     90 X0000090               0              0.52579854
     91 X0000091               0              0.52579854
     92 X0000092               0              0.53507969
     93 X0000093               0              0.53507969
     94 X0000094               0              0.31894103
     95 X0000095               0              0.31894103
     96 X0000096               0              0.28731046
     97 X0000097               0              0.28731046
     98 X0000098               0              0.23781263
     99 X0000099               0              0.23781263
    100 X0000100               0              0.21831657
    101 X0000101               0              0.21831657
    102 X0000102               0              0.17538905
    103 X0000103               0              0.92177324
    104 X0000104               0              0.52048315
    105 X0000105               0              0.52048315
    106 X0000106               0              0.76186229
    107 X0000107               0              0.82002429
    108 X0000108               0              0.25644935
    109 X0000109               0              0.25644935
    110 X0000110               0              0.20927981
    111 X0000111               0              0.55974205
    112 X0000112               1              0.55974205
    113 X0000113               0              0.26255073
    114 X0000114               0              0.54171098
    115 X0000115               0              0.54171098
    116 X0000116               0              0.95365032
    117 X0000117               0               0.7095427
    118 X0000118               1               0.7095427
    119 X0000119               0             -0.14002289
    120 X0000120               0               0.2911577
    121 X0000121               0               0.2911577
    122 X0000122               0              0.49162023
    123 X0000123               0              0.49162023
    124 X0000124               0              0.23523062
    125 X0000125               0              0.23523062
    126 X0000126               0              0.71788732
    127 X0000127               0              0.71788732
    128 X0000128               0             0.029557016
    129 X0000129               0             0.029557016
    130 X0000130               0              0.17516615
    131 X0000131               0              0.84554251
    132 X0000132               1              0.84554251
    133 X0000133               0              0.58015998
    134 X0000134               0              0.58015998
    135 X0000135               0              0.57608752
    136 X0000136               1              0.57608752
    137 X0000137               0               0.6677621
    138 X0000138               0              0.64286799
    139 X0000139               0              0.64286799
    140 X0000140               0              0.49717695
    141 X0000141               0              0.49717695
    142 X0000142               0              0.59266406
    143 X0000143               0              0.59266406
    144 X0000144               0                       1
    145 X0000145               1              0.66789512
    146 X0000146               0              0.66789512
    147 X0000147               0              0.56157142
    148 X0000148               0              0.56157142
    149 X0000149               0              0.87701514
    150 X0000150               0              0.31302045
    151 X0000151               0              0.31302045
    152 X0000152               0              0.42722955
    153 X0000153               0              0.42722955
    154 X0000154               0              0.55501137
    155 X0000155               0              0.55501137
    156 X0000156               0             -0.12858437
    157 X0000157               0               0.8694816
    158 X0000158               0               0.5567829
    159 X0000159               0               0.5567829
    160 X0000160               0              0.56467058
    161 X0000161               0              0.56467058
    162 X0000162               0              0.57771427
    163 X0000163               0              0.57771427
    164 X0000164               0              0.17789824
    165 X0000165               0              0.17789824
    166 X0000166               0              0.85662337
    167 X0000167               0              0.49492956
    168 X0000168               0              0.49492956
    169 X0000169               0              0.62349887
    170 X0000170               0              0.62349887
    171 X0000171               0              0.33638385
    172 X0000172               0              0.33638385
    173 X0000173               0              0.54357091
    174 X0000174               0              0.54357091
    175 X0000175               0              0.17401612
    176 X0000176               0              0.17401612
    177 X0000177               0              0.15410661
    178 X0000178               0              0.15410661
    179 X0000179               0              0.49545127
    180 X0000180               0              0.49545127
    181 X0000181               0              0.36100913
    182 X0000182               0              0.36100913
    183 X0000183               0              0.60611189
    184 X0000184               0              0.60611189
    185 X0000185               0              0.34384789
    186 X0000186               0              0.34384789
    187 X0000187               0              0.72725736
    188 X0000188               0              0.60033802
    189 X0000189               0              0.60033802
    190 X0000190               0             -0.25202752
    191 X0000191               0              0.64018862
    192 X0000192               0                0.685103
    193 X0000193               1                0.685103
    194 X0000194               0              0.33087785
    195 X0000195               0              0.33087785
    196 X0000196               0              0.53989405
    197 X0000197               0              0.53989405
    198 X0000198               0              0.78580921
    199 X0000199               0              0.79999487
    200 X0000200               0              0.18129911
    201 X0000201               0              0.18129911
    202 X0000202               0              0.72670733
    203 X0000203               0               0.5147982
    204 X0000204               0               0.5147982
    205 X0000205               0              0.34193527
    206 X0000206               0              0.34193527
    207 X0000207               0              0.33607613
    208 X0000208               0              0.33607613
    209 X0000209               0              0.45552633
    210 X0000210               0              0.45552633
    211 X0000211               0             0.078026011
    212 X0000212               0             0.078026011
    213 X0000213               0              0.32790431
    214 X0000214               0              0.32790431
    215 X0000215               0             -0.12759819
    216 X0000216               0              0.35046453
    217 X0000217               0              0.35046453
    218 X0000218               0              0.40929144
    219 X0000219               0              0.40929144
    220 X0000220               0              0.69102479
    221 X0000221               0              0.69102479
    222 X0000222               0              0.22246377
    223 X0000223               0              0.22246377
    224 X0000224               0             -0.13633056
    225 X0000225               0              0.17446824
    226 X0000226               0              0.20344231
    227 X0000227               0              0.20344231
    228 X0000228               0              0.40710882
    229 X0000229               0              0.40710882
    230 X0000230               0              0.44035229
    231 X0000231               0              0.44035229
    232 X0000232               0             -0.20516235
    233 X0000233               0             -0.20516235
    234 X0000234               0              0.42525226
    235 X0000235               0              0.42525226
    236 X0000236               0              0.15144969
    237 X0000237               0              0.15144969
    238 X0000238               0              0.73264925
    239 X0000239               0              0.44821168
    240 X0000240               0              0.44821168
    241 X0000241               0              0.62439099
    242 X0000242               0              0.62439099
    243 X0000243               0             -0.17457999
    244 X0000244               0              0.48925412
    245 X0000245               0              0.48925412
    246 X0000246               0              0.28572766
    247 X0000247               0              0.28572766
    248 X0000248               0              0.70363102
    249 X0000249               0              0.70363102
    250 X0000250               0              0.68891235
    251 X0000251               0              0.68891235
    252 X0000252               0             0.058572743
    253 X0000253               0             0.058572743
    254 X0000254               0             -0.15001485
    255 X0000255               0              0.51456118
    256 X0000256               0              0.51456118
    257 X0000257               0              0.41829299
    258 X0000258               0              0.41829299
    259 X0000259               0              0.45538209
    260 X0000260               0              0.45538209
    261 X0000261               0               0.2171883
    262 X0000262               0               0.2171883
    263 X0000263               0              0.62295306
    264 X0000264               0              0.62295306
    265 X0000265               0              0.68107072
    266 X0000266               0              0.19243048
    267 X0000267               0              0.19243048
    268 X0000268               0              0.31879989
    269 X0000269               0              0.31879989
    270 X0000270               0              0.27295462
    271 X0000271               0              0.27295462
    272 X0000272               0              0.26318356
    273 X0000273               0              0.26318356
    274 X0000274               0              0.23974386
    275 X0000275               0              0.23974386
    276 X0000276               0              0.24584505
    277 X0000277               0              0.24584505
    278 X0000278               0              0.59613673
    279 X0000279               0              0.59613673
    280 X0000280               0              0.44749897
    281 X0000281               0              0.44749897
    282 X0000282               0              0.18894829
    283 X0000283               0              0.51983592
    284 X0000284               0              0.51983592
    285 X0000285               0              0.29816574
    286 X0000286               0              0.29816574
